7 26
127 89
182 60
206 30
325 12
390 30
56 75
74 110
146 120
228 77
305 115
378 78
51 199
69 151
155 170
213 149
297 147
340 138
61 252
120 218
185 249
263 263
325 249
377 247
40 331
92 266
172 269
254 285
307 329
342 328
27 364
123 368
150 375
244 376
303 384
391 355
35 258
126 22
146 310
50 360